nNurses = 175;
nHours = 32;
minHours = 6;
maxHours = 13;
maxConsec = 7;
maxPresence = 24;
demand = [48, 49, 46, 48, 43, 40, 40, 36, 41, 39, 43, 41, 44, 42, 42, 47, 49, 49, 44, 46, 45, 42, 43, 43, 42, 39, 42, 37, 40, 37, 35, 38];
